NAME: tsp25_22
COMMENT: 25-tsp problem (Padberg/Rinaldi)
TYPE: TSP
DIMENSION: 25
EDGE_WEIGHT_TYPE : EUC_2D
NODE_COORD_SECTION
1 39 6
2 18 38
3 26 26
4 1 14
5 30 29
6 15 21
7 22 16
8 24 7
9 22 37
10 37 26
11 9 22
12 32 34
13 16 34
14 27 8
15 3 22
16 28 17
17 37 37
18 34 17
19 0 25
20 40 11
21 28 40
22 32 31
23 32 1
24 30 15
25 14 13
